Zr 
 1.0000000000000000
     9.4000000000000004    0.0000000000000000    0.0000000000000000
     0.0000000000000000    9.4000000000000004    0.0000000000000000
     0.0000000000000000    0.0000000000000000    9.4000000000000004
  Zr
  16
Direct
  0.0000000000000000  0.0000000000000000  0.0000000000000000
  0.2500000000000000  0.2500000000000000  0.2500000000000000
  0.0000000000000000  0.0000000000000000  0.5000000000000000
  0.2500000000000000  0.2500000000000000  0.7500000000000001
  0.0000000000000000  0.5000000000000000  0.0000000000000000
  0.2500000000000000  0.7500000000000001  0.2500000000000000
  0.0000000000000000  0.5000000000000000  0.5000000000000000
  0.2500000000000000  0.7500000000000001  0.7500000000000001
  0.5000000000000000  0.0000000000000000  0.0000000000000000
  0.7500000000000001  0.2500000000000000  0.2500000000000000
  0.5000000000000000  0.0000000000000000  0.5000000000000000
  0.7500000000000001  0.2500000000000000  0.7500000000000001
  0.5000000000000000  0.5000000000000000  0.0000000000000000
  0.7500000000000001  0.7500000000000001  0.2500000000000000
  0.5000000000000000  0.5000000000000000  0.5000000000000000
  0.7500000000000001  0.7500000000000001  0.7500000000000001
